
;this file is automatically generated: Mon Feb 10 17:02:04 CST 2020

;declarations generated

(declare-fun type_fc4da9ef_3fb4_4447_aa82_276cb69281a4_Class6 ( Int) Bool)
(declare-fun oclExcludes ( Int Int) Bool)
(declare-fun Cardinality ( Int) Int)
(declare-fun obj_eb352b7a_e380_4f55_820c_b3b99c0ed41d ( Int) Int)
(declare-fun type_fc4da9ef_3fb4_4447_aa82_276cb69281a4_Class11 ( Int) Bool)
(declare-fun type_fc4da9ef_3fb4_4447_aa82_276cb69281a4_Class13 ( Int) Bool)
(declare-fun oclSelect ( Int Bool) Int)
(declare-fun class6_Class6IntAttr2 ( Int) Int)
(declare-fun Enum0 ( Int) Int)
(declare-fun Enum1 ( Int) Int)
(declare-fun container_ ( Int) Int)
(declare-fun class6_Class6BoolAttr1 ( Int) Bool)
(declare-fun class6_Class6BoolAttr0 ( Int) Bool)
(declare-fun oclIncludes ( Int Int) Bool)
(declare-fun ObjAt ( Int Int) Int)

;formula(s) generated
(assert (! (or (forall ((v Int)) (=> (and (and ( type_fc4da9ef_3fb4_4447_aa82_276cb69281a4_Class6 v )  ( type_fc4da9ef_3fb4_4447_aa82_276cb69281a4_Class11 v ) ) ( type_fc4da9ef_3fb4_4447_aa82_276cb69281a4_Class13 v ) ) (or ( class6_Class6BoolAttr0 ( obj_eb352b7a_e380_4f55_820c_b3b99c0ed41d v )  )  (and (forall ((v Int)) (=> (and (and ( type_fc4da9ef_3fb4_4447_aa82_276cb69281a4_Class6 v )  ( type_fc4da9ef_3fb4_4447_aa82_276cb69281a4_Class11 v ) ) ( type_fc4da9ef_3fb4_4447_aa82_276cb69281a4_Class13 v ) ) ( class6_Class6BoolAttr1 ( obj_eb352b7a_e380_4f55_820c_b3b99c0ed41d v )  ) )) (forall ((v Int)) (=> (and (and ( type_fc4da9ef_3fb4_4447_aa82_276cb69281a4_Class6 v )  ( type_fc4da9ef_3fb4_4447_aa82_276cb69281a4_Class11 v ) ) ( type_fc4da9ef_3fb4_4447_aa82_276cb69281a4_Class13 v ) ) ( class6_Class6BoolAttr1 ( obj_eb352b7a_e380_4f55_820c_b3b99c0ed41d v )  ) )))))) (forall ((v Int)) (=> (and (and ( type_fc4da9ef_3fb4_4447_aa82_276cb69281a4_Class6 v )  ( type_fc4da9ef_3fb4_4447_aa82_276cb69281a4_Class11 v ) ) ( type_fc4da9ef_3fb4_4447_aa82_276cb69281a4_Class13 v ) ) (>= ( class6_Class6IntAttr2 ( obj_eb352b7a_e380_4f55_820c_b3b99c0ed41d v )  )  18)))):named l0))
(assert (! (and (forall ((v Int)) (=> (and (and ( type_fc4da9ef_3fb4_4447_aa82_276cb69281a4_Class6 v )  ( type_fc4da9ef_3fb4_4447_aa82_276cb69281a4_Class11 v ) ) ( type_fc4da9ef_3fb4_4447_aa82_276cb69281a4_Class13 v ) ) ( class6_Class6BoolAttr0 ( obj_eb352b7a_e380_4f55_820c_b3b99c0ed41d v )  ) )) (forall ((v Int)) (=> (and (and ( type_fc4da9ef_3fb4_4447_aa82_276cb69281a4_Class6 v )  ( type_fc4da9ef_3fb4_4447_aa82_276cb69281a4_Class11 v ) ) ( type_fc4da9ef_3fb4_4447_aa82_276cb69281a4_Class13 v ) ) ( class6_Class6BoolAttr1 ( obj_eb352b7a_e380_4f55_820c_b3b99c0ed41d v )  ) ))):named l1))
(assert (! (forall ((v Int)) (=> (and (and ( type_fc4da9ef_3fb4_4447_aa82_276cb69281a4_Class6 v )  ( type_fc4da9ef_3fb4_4447_aa82_276cb69281a4_Class11 v ) ) ( type_fc4da9ef_3fb4_4447_aa82_276cb69281a4_Class13 v ) ) (not ( class6_Class6BoolAttr0 ( obj_eb352b7a_e380_4f55_820c_b3b99c0ed41d v )  )  ))):named l2))
(assert (exists ((o Int)) (and (and ( type_fc4da9ef_3fb4_4447_aa82_276cb69281a4_Class6 ( obj_eb352b7a_e380_4f55_820c_b3b99c0ed41d o )  )  ( type_fc4da9ef_3fb4_4447_aa82_276cb69281a4_Class11 ( obj_eb352b7a_e380_4f55_820c_b3b99c0ed41d o )  ) ) ( type_fc4da9ef_3fb4_4447_aa82_276cb69281a4_Class13 ( obj_eb352b7a_e380_4f55_820c_b3b99c0ed41d o )  ) )))

 ;end of formula 